DIMENSION: 30
EDGE_WEIGHT_TYPE: EXPLICIT
EDGE_WEIGHT_FORMAT: FULL_MATRIX
EDGE_WEIGHT_SECTION:
32767 32767 32767 32767 32767 32767 32767 32767 32767 32767 99 32767 70 32767 32767 32767 32767 32767 32767 59 32767 12 80 32767 32767 32767 32767 94 67 32767 
32767 32767 57 32767 32767 32767 32767 32767 32767 32767 32767 31 32767 32767 32767 32767 32767 32767 32767 32767 76 29 32767 32767 32767 32767 38 32767 94 32767 
32767 57 32767 4 32767 32767 32767 32767 32767 32767 32767 32767 32767 32767 32767 89 32767 32767 32767 11 32767 32767 32767 32767 49 77 32767 32767 32767 32767 
32767 32767 4 32767 32767 32767 32767 62 85 32767 32767 31 32767 32767 57 32767 32767 32767 32767 29 62 32767 32767 32767 32767 32767 32767 32767 32767 66 
32767 32767 32767 32767 32767 32767 27 32767 32767 32767 32767 32767 32767 32767 21 32767 80 32767 32767 32767 32767 32767 32767 32767 32767 32767 32767 32767 32767 21 
32767 32767 32767 32767 32767 32767 32767 68 37 32767 32767 72 32767 32767 99 32767 32767 8 5 32767 32767 32767 32767 32767 32767 10 32767 32767 32767 27 
32767 32767 32767 32767 27 32767 32767 32767 32767 32767 32767 32767 32767 32767 32767 32767 32767 32767 32767 32767 32767 32767 32767 32767 32767 32767 32767 49 32767 86 
32767 32767 32767 62 32767 68 32767 32767 32767 32767 47 32767 32767 32767 32767 32767 32767 32767 32767 32767 32767 32767 32767 32767 30 32767 32767 75 32767 32767 
32767 32767 32767 85 32767 37 32767 32767 32767 32767 32767 32767 32767 32767 32767 42 32767 36 32767 32767 32767 32767 32767 32767 2 32767 32767 32767 4 5 
32767 32767 32767 32767 32767 32767 32767 32767 32767 32767 32767 31 3 50 32767 32767 32767 32767 32767 32767 32767 32767 32767 32767 32767 27 54 32767 32767 32767 
99 32767 32767 32767 32767 32767 32767 47 32767 32767 32767 32767 32767 32767 46 32767 32767 32767 4 60 32767 56 32767 32767 84 32767 3 7 60 32767 
32767 31 32767 31 32767 72 32767 32767 32767 31 32767 32767 83 32767 32767 67 32767 13 32767 32767 32767 32767 32767 32767 32767 32767 32767 22 32767 32767 
70 32767 32767 32767 32767 32767 32767 32767 32767 3 32767 83 32767 32767 68 32767 26 32767 23 32767 32767 75 32767 32767 32767 32767 43 32767 32767 32767 
32767 32767 32767 32767 32767 32767 32767 32767 32767 50 32767 32767 32767 32767 32767 4 32767 32767 32767 32767 12 32767 32767 20 32767 32767 32767 32767 92 42 
32767 32767 32767 57 21 99 32767 32767 32767 32767 46 32767 68 32767 32767 32767 20 32767 13 32767 32767 32767 32767 32767 32767 38 32767 94 32767 32767 
32767 32767 89 32767 32767 32767 32767 32767 42 32767 32767 67 32767 4 32767 32767 33 32767 32767 32767 32767 32767 15 32767 32767 32767 32767 32767 32767 32767 
32767 32767 32767 32767 80 32767 32767 32767 32767 32767 32767 32767 26 32767 20 33 32767 32767 32767 32767 32767 32767 3 32767 40 17 32767 62 32767 32767 
32767 32767 32767 32767 32767 8 32767 32767 36 32767 32767 13 32767 32767 32767 32767 32767 32767 32767 32767 32767 32767 48 32767 32767 32767 82 28 25 95 
32767 32767 32767 32767 32767 5 32767 32767 32767 32767 4 32767 23 32767 13 32767 32767 32767 32767 32767 32767 32767 32767 32767 32767 32767 32767 32767 32767 32767 
59 32767 11 29 32767 32767 32767 32767 32767 32767 60 32767 32767 32767 32767 32767 32767 32767 32767 32767 32767 32 12 32767 32767 32767 9 32767 32767 32767 
32767 76 32767 62 32767 32767 32767 32767 32767 32767 32767 32767 32767 12 32767 32767 32767 32767 32767 32767 32767 35 32767 11 32767 32767 32767 32767 61 32767 
12 29 32767 32767 32767 32767 32767 32767 32767 32767 56 32767 75 32767 32767 32767 32767 32767 32767 32 35 32767 32767 32767 64 44 32767 27 32767 32767 
80 32767 32767 32767 32767 32767 32767 32767 32767 32767 32767 32767 32767 32767 32767 15 3 48 32767 12 32767 32767 32767 32767 32767 32767 32767 32767 32767 32767 
32767 32767 32767 32767 32767 32767 32767 32767 32767 32767 32767 32767 32767 20 32767 32767 32767 32767 32767 32767 11 32767 32767 32767 79 32767 32767 32767 32767 32767 
32767 32767 49 32767 32767 32767 32767 30 2 32767 84 32767 32767 32767 32767 32767 40 32767 32767 32767 32767 64 32767 79 32767 44 32767 32767 2 83 
32767 32767 77 32767 32767 10 32767 32767 32767 27 32767 32767 32767 32767 38 32767 17 32767 32767 32767 32767 44 32767 32767 44 32767 32767 64 32767 32767 
32767 38 32767 32767 32767 32767 32767 32767 32767 54 3 32767 43 32767 32767 32767 32767 82 32767 9 32767 32767 32767 32767 32767 32767 32767 86 30 32767 
94 32767 32767 32767 32767 32767 49 75 32767 32767 7 22 32767 32767 94 32767 62 28 32767 32767 32767 27 32767 32767 32767 64 86 32767 32767 32767 
67 94 32767 32767 32767 32767 32767 32767 4 32767 60 32767 32767 92 32767 32767 32767 25 32767 32767 61 32767 32767 32767 2 32767 30 32767 32767 45 
32767 32767 32767 66 21 27 86 32767 5 32767 32767 32767 32767 42 32767 32767 32767 95 32767 32767 32767 32767 32767 32767 83 32767 32767 32767 45 32767 
EOF